decision_x1=[0,7];
decision_x2=[0,7];
decision_x3=[0,7];
decision_x4=[0,7];
decision_x5=[0,7];
decision_x6=[0,7];
decision_x7=[0,7];
decision_x8=[0,7];
decision_x9=[0,7];
decision_x10=[0,7];
decision_x11=[0,7];
decision_x12=[0,7];
decision_x13=[0,7];
decision_x14=[0,7];
decision_x15=[0,7];
decision_x16=[0,7];
decision_x17=[0,7];
decision_x18=[0,7];
random_y1=[0,7];
random_y2=[0,7];
random_y3=[0,7];
random_y4=[0,7];
random_y5=[0,7];
random_y6=[0,7];
random_y7=[0,7];
random_y8=[0,7];
constraint_x2_x1=[
0,0,0.67|
0,1,4.4|
0,2,7.6|
0,3,3.2|
0,4,3|
0,5,6.8|
0,6,2.5|
0,7,6.3|
1,0,6.7|
1,1,9.9|
1,2,6.3|
1,3,5.2|
1,4,1.2|
1,5,0.21|
1,6,8.4|
1,7,6.1|
2,0,0.26|
2,1,7.5|
2,2,10|
2,3,5.6|
2,4,7.9|
2,5,3.5|
2,6,6.9|
2,7,1.3|
3,0,9.2|
3,1,0.2|
3,2,1.8|
3,3,5.3|
3,4,2.1|
3,5,8|
3,6,7.8|
3,7,4.8|
4,0,7.3|
4,1,9.9|
4,2,2.2|
4,3,2|
4,4,1.3|
4,5,7.2|
4,6,4.7|
4,7,0.066|
5,0,2|
5,1,4.9|
5,2,2.3|
5,3,3.9|
5,4,7.9|
5,5,9.4|
5,6,1.8|
5,7,8.5|
6,0,0.79|
6,1,8.4|
6,2,4.2|
6,3,1|
6,4,9.6|
6,5,1.6|
6,6,1.8|
6,7,0.82|
7,0,9.2|
7,1,5.4|
7,2,6.2|
7,3,5|
7,4,6.7|
7,5,8.4|
7,6,9.7|
7,7,2.9|
];
constraint_x3_x2=[
0,0,7.5|
0,1,5.3|
0,2,6|
0,3,8.1|
0,4,9.1|
0,5,3.5|
0,6,1.4|
0,7,3.1|
1,0,4.9|
1,1,9.7|
1,2,6.1|
1,3,2.2|
1,4,4.9|
1,5,6.9|
1,6,4.7|
1,7,4.1|
2,0,5.4|
2,1,4.8|
2,2,6.8|
2,3,3.2|
2,4,3.3|
2,5,1.9|
2,6,7.4|
2,7,5.8|
3,0,0.076|
3,1,3.9|
3,2,0.87|
3,3,2.7|
3,4,1.5|
3,5,4.9|
3,6,0.42|
3,7,0.57|
4,0,6.5|
4,1,6.4|
4,2,3.3|
4,3,4.6|
4,4,8.1|
4,5,1|
4,6,1.6|
4,7,0.78|
5,0,8.9|
5,1,2.8|
5,2,1.8|
5,3,4|
5,4,10|
5,5,5.4|
5,6,8.9|
5,7,3.9|
6,0,8.6|
6,1,4|
6,2,5.4|
6,3,7.9|
6,4,3|
6,5,6.1|
6,6,3.1|
6,7,7.2|
7,0,5.3|
7,1,7.2|
7,2,7.1|
7,3,1.3|
7,4,0.058|
7,5,9.1|
7,6,6.9|
7,7,1.7|
];
constraint_x4_x3=[
0,0,9.9|
0,1,0.55|
0,2,3|
0,3,3.9|
0,4,3.6|
0,5,3.9|
0,6,8.3|
0,7,6.9|
1,0,4.7|
1,1,2|
1,2,2|
1,3,2.1|
1,4,5.9|
1,5,4.9|
1,6,9|
1,7,9.1|
2,0,2.5|
2,1,1.1|
2,2,3.7|
2,3,5.5|
2,4,3.4|
2,5,2|
2,6,2.9|
2,7,4.3|
3,0,9.8|
3,1,3.6|
3,2,2.2|
3,3,8.8|
3,4,8.7|
3,5,1.4|
3,6,5.5|
3,7,4.4|
4,0,5.2|
4,1,6.1|
4,2,0.63|
4,3,6.3|
4,4,6.5|
4,5,7|
4,6,3.6|
4,7,1.2|
5,0,0.51|
5,1,6.4|
5,2,6.6|
5,3,3.8|
5,4,3.7|
5,5,8.4|
5,6,1.6|
5,7,3.8|
6,0,0.38|
6,1,1.3|
6,2,3.1|
6,3,10|
6,4,8.5|
6,5,3.4|
6,6,4.6|
6,7,0.45|
7,0,7.7|
7,1,5|
7,2,4.9|
7,3,5.9|
7,4,8.2|
7,5,1.5|
7,6,4.4|
7,7,0.48|
];
constraint_x5_x1=[
0,0,7.9|
0,1,4.4|
0,2,6.4|
0,3,1.8|
0,4,0.041|
0,5,6.5|
0,6,1.7|
0,7,2|
1,0,7.9|
1,1,6.2|
1,2,5.6|
1,3,7.5|
1,4,8.2|
1,5,2.1|
1,6,4.7|
1,7,6.6|
2,0,8.6|
2,1,5.9|
2,2,6.8|
2,3,4|
2,4,6.3|
2,5,2.2|
2,6,3.5|
2,7,5.2|
3,0,2.8|
3,1,1.3|
3,2,3.2|
3,3,4.7|
3,4,2.6|
3,5,1.8|
3,6,9.6|
3,7,8.8|
4,0,9.7|
4,1,5.6|
4,2,8.5|
4,3,10|
4,4,8.5|
4,5,5.9|
4,6,6.9|
4,7,2.5|
5,0,9.7|
5,1,3.1|
5,2,6.4|
5,3,8.6|
5,4,5.8|
5,5,5.6|
5,6,9.6|
5,7,0.61|
6,0,10|
6,1,0.26|
6,2,7.1|
6,3,3.6|
6,4,4.7|
6,5,6.2|
6,6,6|
6,7,6|
7,0,0.0042|
7,1,5.2|
7,2,6.7|
7,3,1.8|
7,4,4.7|
7,5,6.5|
7,6,3.7|
7,7,4.3|
];
constraint_x6_x2=[
0,0,0.2|
0,1,6.4|
0,2,2|
0,3,1|
0,4,4|
0,5,3.6|
0,6,6.4|
0,7,4.9|
1,0,6.9|
1,1,1.1|
1,2,4.7|
1,3,5.1|
1,4,5.6|
1,5,2.7|
1,6,4.6|
1,7,4.3|
2,0,2.7|
2,1,1.1|
2,2,2.7|
2,3,1.9|
2,4,6.3|
2,5,5.2|
2,6,1.7|
2,7,2.3|
3,0,5.1|
3,1,8.8|
3,2,9.5|
3,3,0.089|
3,4,2.2|
3,5,0.63|
3,6,5.8|
3,7,7.1|
4,0,9.7|
4,1,8|
4,2,1.3|
4,3,2.5|
4,4,9.1|
4,5,5.3|
4,6,3|
4,7,3.3|
5,0,9.6|
5,1,2.2|
5,2,0.32|
5,3,1.6|
5,4,6.2|
5,5,5.4|
5,6,7.5|
5,7,7.7|
6,0,0.82|
6,1,9.6|
6,2,0.45|
6,3,0.00085|
6,4,5.6|
6,5,6.8|
6,6,8.8|
6,7,7.3|
7,0,1.7|
7,1,4.3|
7,2,7.5|
7,3,6.2|
7,4,4.2|
7,5,4.7|
7,6,2.7|
7,7,6|
];
constraint_x6_x5=[
0,0,3.3|
0,1,1.7|
0,2,3|
0,3,2.6|
0,4,7.8|
0,5,6.9|
0,6,5.2|
0,7,7|
1,0,0.98|
1,1,4.9|
1,2,8.7|
1,3,5.7|
1,4,1.1|
1,5,7.5|
1,6,5.7|
1,7,0.87|
2,0,4|
2,1,8.3|
2,2,1.7|
2,3,5.9|
2,4,2.9|
2,5,1.1|
2,6,4|
2,7,9.8|
3,0,2.4|
3,1,7.2|
3,2,8.6|
3,3,2.5|
3,4,0.78|
3,5,3.5|
3,6,7.6|
3,7,5|
4,0,1.6|
4,1,5.8|
4,2,6.5|
4,3,3.1|
4,4,6.5|
4,5,3.8|
4,6,4.6|
4,7,7.3|
5,0,6.9|
5,1,2.1|
5,2,9.9|
5,3,0.56|
5,4,9.9|
5,5,3.1|
5,6,9|
5,7,6.2|
6,0,4|
6,1,7.8|
6,2,4.2|
6,3,7.6|
6,4,0.32|
6,5,6.4|
6,6,6.6|
6,7,6.3|
7,0,6.1|
7,1,5|
7,2,5.9|
7,3,1.6|
7,4,3.9|
7,5,7.8|
7,6,8.3|
7,7,3.3|
];
constraint_x7_x3=[
0,0,2.2|
0,1,2.2|
0,2,4.7|
0,3,9.1|
0,4,3.9|
0,5,7.4|
0,6,0.24|
0,7,4.4|
1,0,6.1|
1,1,9.7|
1,2,4.2|
1,3,3.1|
1,4,9.5|
1,5,4.5|
1,6,3.2|
1,7,3|
2,0,9.1|
2,1,1.9|
2,2,8.7|
2,3,0.93|
2,4,2.2|
2,5,4.4|
2,6,6.5|
2,7,1|
3,0,1.4|
3,1,6.4|
3,2,4.6|
3,3,8.1|
3,4,4.7|
3,5,1.5|
3,6,7.2|
3,7,5.7|
4,0,1.1|
4,1,1.1|
4,2,8.1|
4,3,8.1|
4,4,7.7|
4,5,5.7|
4,6,6.4|
4,7,0.53|
5,0,8.5|
5,1,9.9|
5,2,5.7|
5,3,5.4|
5,4,2.3|
5,5,5.8|
5,6,8.8|
5,7,4.1|
6,0,1.3|
6,1,9|
6,2,1.2|
6,3,1.5|
6,4,4.5|
6,5,0.29|
6,6,1.2|
6,7,1.3|
7,0,9.5|
7,1,0.76|
7,2,7.7|
7,3,3.9|
7,4,5.2|
7,5,3.6|
7,6,7.7|
7,7,9.8|
];
constraint_x7_x6=[
0,0,5.7|
0,1,3.3|
0,2,6.6|
0,3,4.2|
0,4,2.4|
0,5,2.1|
0,6,6.4|
0,7,8.6|
1,0,7.5|
1,1,3.2|
1,2,8.7|
1,3,6.1|
1,4,1.3|
1,5,2.1|
1,6,5.1|
1,7,0.93|
2,0,4.6|
2,1,7.3|
2,2,3.3|
2,3,7.9|
2,4,2.4|
2,5,8.4|
2,6,1.7|
2,7,9.7|
3,0,2.9|
3,1,2.8|
3,2,5.7|
3,3,5.4|
3,4,9.2|
3,5,2.3|
3,6,2.4|
3,7,9.2|
4,0,6.2|
4,1,9|
4,2,8.8|
4,3,0.0064|
4,4,3|
4,5,7.6|
4,6,3.2|
4,7,5.8|
5,0,7.2|
5,1,1.3|
5,2,0.32|
5,3,3.4|
5,4,0.61|
5,5,7.9|
5,6,5.9|
5,7,9.4|
6,0,4.4|
6,1,1.6|
6,2,3.7|
6,3,9.1|
6,4,0.13|
6,5,6.6|
6,6,9.7|
6,7,4.1|
7,0,6.3|
7,1,5.6|
7,2,2|
7,3,2.3|
7,4,8.3|
7,5,5.9|
7,6,7.9|
7,7,7.8|
];
constraint_x8_x4=[
0,0,6|
0,1,9.8|
0,2,1.4|
0,3,4.7|
0,4,7.1|
0,5,6.5|
0,6,7.8|
0,7,1.7|
1,0,9|
1,1,0.32|
1,2,5.4|
1,3,4.9|
1,4,7.6|
1,5,6.1|
1,6,0.32|
1,7,8.4|
2,0,4.2|
2,1,7.8|
2,2,2.6|
2,3,2.7|
2,4,2.6|
2,5,3.7|
2,6,2.2|
2,7,5.5|
3,0,2.3|
3,1,4.9|
3,2,5.6|
3,3,10|
3,4,8.6|
3,5,2.8|
3,6,6.3|
3,7,3.7|
4,0,6.4|
4,1,8.9|
4,2,3.5|
4,3,0.4|
4,4,7.7|
4,5,0.27|
4,6,0.24|
4,7,8.8|
5,0,7|
5,1,9.3|
5,2,0.053|
5,3,6.5|
5,4,8.2|
5,5,0.76|
5,6,1.4|
5,7,8.3|
6,0,5.5|
6,1,0.32|
6,2,4.8|
6,3,7.4|
6,4,4.4|
6,5,9.9|
6,6,6.3|
6,7,5.4|
7,0,0.97|
7,1,2.3|
7,2,9.6|
7,3,2.9|
7,4,0.91|
7,5,5.7|
7,6,0.94|
7,7,2.2|
];
constraint_x8_x7=[
0,0,0.079|
0,1,8.2|
0,2,8.3|
0,3,9.2|
0,4,9.7|
0,5,0.014|
0,6,0.13|
0,7,3|
1,0,2|
1,1,5.4|
1,2,5.2|
1,3,0.88|
1,4,7.5|
1,5,9.9|
1,6,9.5|
1,7,6.6|
2,0,8.5|
2,1,9.2|
2,2,9.5|
2,3,4.7|
2,4,2.3|
2,5,4.5|
2,6,8.1|
2,7,6.3|
3,0,3.1|
3,1,0.58|
3,2,8.9|
3,3,1.5|
3,4,8.3|
3,5,8.5|
3,6,7.4|
3,7,1.1|
4,0,4.2|
4,1,1.4|
4,2,8.4|
4,3,3.7|
4,4,3.1|
4,5,3.3|
4,6,3.9|
4,7,8.7|
5,0,6.8|
5,1,6.7|
5,2,2.4|
5,3,8.2|
5,4,1.2|
5,5,6.5|
5,6,7.2|
5,7,6|
6,0,7.7|
6,1,0.29|
6,2,4.9|
6,3,0.093|
6,4,7.4|
6,5,3.8|
6,6,8.6|
6,7,7.3|
7,0,5.8|
7,1,7.5|
7,2,5.9|
7,3,0.83|
7,4,6.5|
7,5,2.2|
7,6,0.39|
7,7,3.3|
];
constraint_x9_x5=[
0,0,4.6|
0,1,9.2|
0,2,3.5|
0,3,8.3|
0,4,6.2|
0,5,7.9|
0,6,5.1|
0,7,8|
1,0,5.8|
1,1,0.72|
1,2,6.1|
1,3,4.4|
1,4,9.6|
1,5,3.7|
1,6,8.7|
1,7,3.2|
2,0,6.6|
2,1,6.9|
2,2,8.6|
2,3,3.6|
2,4,8.4|
2,5,8.2|
2,6,2.5|
2,7,2|
3,0,3.2|
3,1,8.6|
3,2,9.1|
3,3,1.4|
3,4,1.4|
3,5,1.9|
3,6,3.8|
3,7,2.5|
4,0,0.56|
4,1,8.1|
4,2,0.92|
4,3,3.2|
4,4,3.3|
4,5,9.8|
4,6,2.8|
4,7,6.5|
5,0,2.4|
5,1,4.1|
5,2,5.8|
5,3,0.41|
5,4,1.2|
5,5,8.8|
5,6,5.3|
5,7,6.5|
6,0,8.2|
6,1,4.5|
6,2,6.6|
6,3,4.8|
6,4,6.3|
6,5,0.81|
6,6,3.7|
6,7,5.1|
7,0,2.8|
7,1,7.3|
7,2,7.3|
7,3,6.6|
7,4,3.4|
7,5,7.3|
7,6,2.5|
7,7,2.4|
];
constraint_x10_x6=[
0,0,8.1|
0,1,9.6|
0,2,3.6|
0,3,2.3|
0,4,0.77|
0,5,1.7|
0,6,9.6|
0,7,6.8|
1,0,0.35|
1,1,6.5|
1,2,9.3|
1,3,8|
1,4,5.6|
1,5,1.6|
1,6,4.5|
1,7,6.3|
2,0,4.1|
2,1,2.3|
2,2,2.9|
2,3,2.5|
2,4,6.2|
2,5,4.3|
2,6,5.6|
2,7,3.9|
3,0,5.6|
3,1,0.83|
3,2,7.4|
3,3,5.3|
3,4,8.2|
3,5,1.5|
3,6,6.2|
3,7,7.7|
4,0,0.75|
4,1,5.1|
4,2,1.5|
4,3,4.1|
4,4,6.7|
4,5,8.2|
4,6,5|
4,7,1.3|
5,0,8.2|
5,1,2.9|
5,2,0.14|
5,3,4.5|
5,4,8.1|
5,5,8.7|
5,6,2.4|
5,7,5.3|
6,0,7.8|
6,1,2.5|
6,2,8.6|
6,3,6.9|
6,4,9.6|
6,5,4.7|
6,6,3.6|
6,7,1.4|
7,0,1.3|
7,1,9.2|
7,2,5.8|
7,3,3.5|
7,4,2.5|
7,5,4.7|
7,6,8.2|
7,7,9|
];
constraint_x10_x9=[
0,0,3.5|
0,1,9.9|
0,2,4.6|
0,3,8.4|
0,4,2.3|
0,5,7.6|
0,6,6|
0,7,0.32|
1,0,6.3|
1,1,2.9|
1,2,9.7|
1,3,6.2|
1,4,1.2|
1,5,5.1|
1,6,1.8|
1,7,8.8|
2,0,0.62|
2,1,7.4|
2,2,9.1|
2,3,9.3|
2,4,1.5|
2,5,4.2|
2,6,5.5|
2,7,5.4|
3,0,0.37|
3,1,1.8|
3,2,4.8|
3,3,5.3|
3,4,8.3|
3,5,0.27|
3,6,3.9|
3,7,7.3|
4,0,9.7|
4,1,7.1|
4,2,8|
4,3,9.5|
4,4,0.63|
4,5,7.5|
4,6,7.8|
4,7,7.1|
5,0,5.9|
5,1,1.8|
5,2,3.6|
5,3,0.36|
5,4,6.4|
5,5,4.3|
5,6,5.3|
5,7,7.6|
6,0,1.2|
6,1,9.2|
6,2,2.7|
6,3,7.9|
6,4,7.2|
6,5,1.7|
6,6,6.1|
6,7,7.5|
7,0,0.51|
7,1,3.6|
7,2,4.7|
7,3,8.1|
7,4,4.9|
7,5,0.42|
7,6,2.4|
7,7,0.68|
];
constraint_x11_x7=[
0,0,2.2|
0,1,1|
0,2,0.36|
0,3,1.4|
0,4,9.4|
0,5,4.7|
0,6,3.7|
0,7,8.6|
1,0,1.5|
1,1,8.9|
1,2,7.9|
1,3,8.4|
1,4,6.9|
1,5,9.6|
1,6,8.5|
1,7,3.1|
2,0,4.1|
2,1,3.3|
2,2,7.7|
2,3,8.8|
2,4,1.9|
2,5,8.2|
2,6,2.8|
2,7,0.45|
3,0,6.9|
3,1,2.2|
3,2,7.6|
3,3,3.7|
3,4,1.2|
3,5,9.4|
3,6,1.8|
3,7,8.9|
4,0,2.7|
4,1,2|
4,2,2.8|
4,3,9.8|
4,4,8.4|
4,5,5.3|
4,6,4.1|
4,7,0.9|
5,0,9.1|
5,1,3.9|
5,2,5.5|
5,3,0.19|
5,4,0.022|
5,5,0.82|
5,6,9.8|
5,7,8.8|
6,0,0.48|
6,1,6|
6,2,8.7|
6,3,1.3|
6,4,8.6|
6,5,2.3|
6,6,1.9|
6,7,2.8|
7,0,0.89|
7,1,1|
7,2,1.9|
7,3,5.9|
7,4,2.1|
7,5,8.7|
7,6,2.2|
7,7,5.3|
];
constraint_x11_x10=[
0,0,1.6|
0,1,6|
0,2,5.8|
0,3,1.6|
0,4,4.5|
0,5,1.6|
0,6,3.6|
0,7,7|
1,0,4.2|
1,1,1.9|
1,2,9.7|
1,3,2.9|
1,4,4|
1,5,7.8|
1,6,4.7|
1,7,9.8|
2,0,6.8|
2,1,3.9|
2,2,9.1|
2,3,2.8|
2,4,4|
2,5,7|
2,6,2.2|
2,7,3.3|
3,0,4.9|
3,1,5.8|
3,2,7.9|
3,3,6|
3,4,3.8|
3,5,6.7|
3,6,3.4|
3,7,1.9|
4,0,1.2|
4,1,9|
4,2,4|
4,3,6|
4,4,5.1|
4,5,2.5|
4,6,5.5|
4,7,7.3|
5,0,4.8|
5,1,1.5|
5,2,0.34|
5,3,6|
5,4,3.8|
5,5,2.7|
5,6,0.94|
5,7,4.7|
6,0,7.4|
6,1,6.4|
6,2,5.8|
6,3,3.5|
6,4,2.3|
6,5,0.35|
6,6,9.3|
6,7,5.5|
7,0,2.1|
7,1,2.8|
7,2,8.9|
7,3,2.2|
7,4,7|
7,5,7.2|
7,6,4.8|
7,7,3.8|
];
constraint_x12_x8=[
0,0,1.7|
0,1,9.6|
0,2,0.75|
0,3,0.19|
0,4,6.9|
0,5,5|
0,6,6.6|
0,7,0.64|
1,0,3.3|
1,1,0.75|
1,2,6.9|
1,3,6|
1,4,5.5|
1,5,5.7|
1,6,3.1|
1,7,8.5|
2,0,2|
2,1,7.6|
2,2,1.9|
2,3,1|
2,4,4.7|
2,5,0.23|
2,6,3.2|
2,7,6.3|
3,0,4.1|
3,1,9.3|
3,2,1.6|
3,3,6.5|
3,4,1.2|
3,5,5.7|
3,6,2.8|
3,7,4|
4,0,7.2|
4,1,3.7|
4,2,7.9|
4,3,3.5|
4,4,9.5|
4,5,9.5|
4,6,4|
4,7,8.7|
5,0,9.6|
5,1,1.2|
5,2,6|
5,3,6.7|
5,4,2.6|
5,5,2.9|
5,6,9.8|
5,7,4.7|
6,0,0.39|
6,1,6.5|
6,2,0.48|
6,3,5.8|
6,4,3|
6,5,4|
6,6,2.3|
6,7,3.6|
7,0,9|
7,1,7.8|
7,2,6|
7,3,3.5|
7,4,7.9|
7,5,8.7|
7,6,2.7|
7,7,6.5|
];
constraint_x12_x11=[
0,0,9|
0,1,3.7|
0,2,2.3|
0,3,2.8|
0,4,5.1|
0,5,9|
0,6,2.9|
0,7,6.1|
1,0,9.3|
1,1,2.5|
1,2,9.5|
1,3,8.9|
1,4,3.2|
1,5,5|
1,6,3.7|
1,7,1.8|
2,0,9.8|
2,1,0.37|
2,2,8.6|
2,3,0.45|
2,4,7.1|
2,5,8.1|
2,6,1.6|
2,7,4.9|
3,0,5.8|
3,1,4.7|
3,2,3.4|
3,3,6.6|
3,4,9.5|
3,5,1.1|
3,6,9.1|
3,7,2.7|
4,0,4.6|
4,1,5.8|
4,2,3.8|
4,3,1.4|
4,4,1.3|
4,5,4.8|
4,6,2.7|
4,7,5.5|
5,0,6.2|
5,1,0.0059|
5,2,0.33|
5,3,2.2|
5,4,6.5|
5,5,1.5|
5,6,2.2|
5,7,7.6|
6,0,10|
6,1,2.3|
6,2,4.3|
6,3,6.1|
6,4,5.4|
6,5,4.5|
6,6,6.3|
6,7,6.4|
7,0,6.1|
7,1,0.48|
7,2,1.6|
7,3,5.3|
7,4,5.2|
7,5,7.8|
7,6,5.3|
7,7,7.4|
];
constraint_x13_x9=[
0,0,9.3|
0,1,7|
0,2,6.9|
0,3,5.7|
0,4,3.1|
0,5,7.1|
0,6,0.1|
0,7,6.4|
1,0,2.9|
1,1,8.6|
1,2,7.5|
1,3,0.087|
1,4,1.5|
1,5,0.45|
1,6,4.5|
1,7,2.3|
2,0,1.7|
2,1,2.3|
2,2,4.6|
2,3,7.2|
2,4,3|
2,5,4.5|
2,6,7.8|
2,7,5|
3,0,9.4|
3,1,9.3|
3,2,5.9|
3,3,3|
3,4,8.7|
3,5,7.2|
3,6,6.5|
3,7,10|
4,0,4.9|
4,1,9.4|
4,2,9.8|
4,3,6.9|
4,4,6|
4,5,8.5|
4,6,9.5|
4,7,9.9|
5,0,5.5|
5,1,9.1|
5,2,2.7|
5,3,8.5|
5,4,9.5|
5,5,6.4|
5,6,2.9|
5,7,1.1|
6,0,8.4|
6,1,4|
6,2,4|
6,3,7.8|
6,4,4.5|
6,5,9.1|
6,6,6|
6,7,7.4|
7,0,4.2|
7,1,1.2|
7,2,2.9|
7,3,3.4|
7,4,0.96|
7,5,1.1|
7,6,5.6|
7,7,2.3|
];
constraint_x14_x10=[
0,0,2.8|
0,1,1.3|
0,2,4.6|
0,3,0.43|
0,4,8|
0,5,5.1|
0,6,2.5|
0,7,7.2|
1,0,9.3|
1,1,2.2|
1,2,9.6|
1,3,9.8|
1,4,7|
1,5,8.3|
1,6,2.4|
1,7,5.7|
2,0,1.7|
2,1,1.5|
2,2,7|
2,3,8.1|
2,4,7.7|
2,5,4.1|
2,6,10|
2,7,4.4|
3,0,4.2|
3,1,4.3|
3,2,1.9|
3,3,0.38|
3,4,7.7|
3,5,0.66|
3,6,8|
3,7,8.6|
4,0,5|
4,1,9.6|
4,2,1.9|
4,3,9.2|
4,4,9.6|
4,5,2.1|
4,6,3.4|
4,7,4.3|
5,0,3.4|
5,1,2.8|
5,2,4.3|
5,3,0.4|
5,4,6.8|
5,5,0.0021|
5,6,7.1|
5,7,5.4|
6,0,1.5|
6,1,3|
6,2,2.7|
6,3,9.4|
6,4,0.52|
6,5,2.9|
6,6,8.5|
6,7,4.9|
7,0,4.8|
7,1,1.8|
7,2,1.2|
7,3,4.8|
7,4,4.4|
7,5,8.5|
7,6,9.2|
7,7,0.24|
];
constraint_x14_x13=[
0,0,4|
0,1,1|
0,2,5.5|
0,3,5.4|
0,4,8.7|
0,5,8.3|
0,6,6.5|
0,7,1.6|
1,0,0.87|
1,1,8.5|
1,2,4.5|
1,3,3.9|
1,4,5.8|
1,5,0.29|
1,6,0.36|
1,7,9.5|
2,0,4.4|
2,1,6.6|
2,2,9.1|
2,3,8.5|
2,4,3.6|
2,5,8.2|
2,6,2.8|
2,7,4.9|
3,0,0.98|
3,1,2.1|
3,2,5.5|
3,3,8.4|
3,4,1.2|
3,5,2.6|
3,6,4.8|
3,7,1.2|
4,0,5.8|
4,1,4.8|
4,2,0.41|
4,3,6.8|
4,4,6.1|
4,5,0.53|
4,6,0.81|
4,7,5.6|
5,0,0.49|
5,1,2|
5,2,4.7|
5,3,4.7|
5,4,2|
5,5,5.3|
5,6,5.5|
5,7,2.1|
6,0,6.7|
6,1,2.4|
6,2,6.9|
6,3,5.3|
6,4,6.3|
6,5,3.1|
6,6,5.6|
6,7,5.6|
7,0,7.9|
7,1,4.3|
7,2,0.71|
7,3,1.3|
7,4,3.8|
7,5,8.5|
7,6,5.5|
7,7,5.8|
];
constraint_x15_x11=[
0,0,4.9|
0,1,4.9|
0,2,2.1|
0,3,5.1|
0,4,1.3|
0,5,7.9|
0,6,4.2|
0,7,6.1|
1,0,6.2|
1,1,5.6|
1,2,9.8|
1,3,4.6|
1,4,1.9|
1,5,9.2|
1,6,8.3|
1,7,9.7|
2,0,2.8|
2,1,0.35|
2,2,9.9|
2,3,4.1|
2,4,6|
2,5,8.7|
2,6,1.4|
2,7,3.5|
3,0,3.9|
3,1,7|
3,2,6.2|
3,3,3.9|
3,4,3.7|
3,5,4.3|
3,6,6.5|
3,7,7|
4,0,8.5|
4,1,10|
4,2,2.6|
4,3,0.91|
4,4,4.2|
4,5,1.3|
4,6,6.4|
4,7,2.2|
5,0,0.2|
5,1,3.1|
5,2,2.9|
5,3,5.7|
5,4,5.8|
5,5,8.6|
5,6,5.7|
5,7,7.9|
6,0,7.2|
6,1,0.68|
6,2,4.4|
6,3,3.5|
6,4,2.5|
6,5,0.015|
6,6,2.5|
6,7,8.2|
7,0,4|
7,1,9.1|
7,2,9.4|
7,3,0.11|
7,4,4.6|
7,5,1.5|
7,6,7.6|
7,7,6.8|
];
constraint_x15_x14=[
0,0,9.8|
0,1,9.4|
0,2,4.1|
0,3,3.9|
0,4,9|
0,5,5.6|
0,6,0.88|
0,7,8.9|
1,0,8.9|
1,1,9.2|
1,2,7.3|
1,3,2|
1,4,1.8|
1,5,6.8|
1,6,7|
1,7,5|
2,0,8.2|
2,1,3.5|
2,2,7|
2,3,7.4|
2,4,3|
2,5,5.9|
2,6,9.6|
2,7,6.9|
3,0,7|
3,1,4.6|
3,2,5.1|
3,3,8.9|
3,4,3.1|
3,5,4.6|
3,6,1.8|
3,7,5.9|
4,0,3|
4,1,1.2|
4,2,0.27|
4,3,3.8|
4,4,1.9|
4,5,3.5|
4,6,6.7|
4,7,2.6|
5,0,3.8|
5,1,7|
5,2,0.019|
5,3,7.7|
5,4,5.7|
5,5,9.6|
5,6,3.4|
5,7,8.8|
6,0,1.2|
6,1,2|
6,2,7.9|
6,3,6.1|
6,4,9.1|
6,5,9.6|
6,6,3.4|
6,7,10|
7,0,0.96|
7,1,8|
7,2,8.4|
7,3,2.3|
7,4,9.7|
7,5,2.8|
7,6,0.1|
7,7,6.9|
];
constraint_x16_x12=[
0,0,2.6|
0,1,6.2|
0,2,8.8|
0,3,3.6|
0,4,8.7|
0,5,1.4|
0,6,8|
0,7,3|
1,0,1|
1,1,2.5|
1,2,8.9|
1,3,9.9|
1,4,8.8|
1,5,5.3|
1,6,8|
1,7,10|
2,0,2.3|
2,1,3|
2,2,9.3|
2,3,9.9|
2,4,3.7|
2,5,1|
2,6,9.6|
2,7,5.3|
3,0,5.8|
3,1,1.7|
3,2,4.5|
3,3,5.2|
3,4,3.9|
3,5,1.7|
3,6,4.7|
3,7,5.5|
4,0,6|
4,1,7.7|
4,2,5.3|
4,3,1.4|
4,4,5.8|
4,5,4.6|
4,6,3|
4,7,4.9|
5,0,1.6|
5,1,0.34|
5,2,7.1|
5,3,5.4|
5,4,3.7|
5,5,5.1|
5,6,9.9|
5,7,7.3|
6,0,7.4|
6,1,5.4|
6,2,8.5|
6,3,4.2|
6,4,3.6|
6,5,8.8|
6,6,0.011|
6,7,8.3|
7,0,6.5|
7,1,4.3|
7,2,2.8|
7,3,4.6|
7,4,3.5|
7,5,6.2|
7,6,7.3|
7,7,6.8|
];
constraint_x16_x15=[
0,0,5.3|
0,1,9.3|
0,2,9.4|
0,3,2.8|
0,4,9.2|
0,5,3.9|
0,6,2.1|
0,7,5.1|
1,0,7.5|
1,1,7.1|
1,2,3.1|
1,3,5.2|
1,4,4|
1,5,1.7|
1,6,3.4|
1,7,0.88|
2,0,0.5|
2,1,6.4|
2,2,9.7|
2,3,8.4|
2,4,1.1|
2,5,8.6|
2,6,2.2|
2,7,9.1|
3,0,6.7|
3,1,4|
3,2,0.3|
3,3,2.8|
3,4,4|
3,5,3.2|
3,6,7.4|
3,7,4.3|
4,0,7.2|
4,1,5.3|
4,2,5.6|
4,3,6.9|
4,4,0.066|
4,5,2.6|
4,6,6.1|
4,7,0.55|
5,0,3.6|
5,1,6.2|
5,2,8.3|
5,3,6.4|
5,4,4.3|
5,5,9.9|
5,6,8.3|
5,7,2.8|
6,0,7.5|
6,1,2.7|
6,2,2.5|
6,3,6|
6,4,3.3|
6,5,9.9|
6,6,7.6|
6,7,1.5|
7,0,7.2|
7,1,0.33|
7,2,0.08|
7,3,0.8|
7,4,4.2|
7,5,6.1|
7,6,2.7|
7,7,5.2|
];
constraint_x17_x13=[
0,0,8.5|
0,1,6.2|
0,2,5.9|
0,3,6.4|
0,4,5.8|
0,5,6.5|
0,6,8.4|
0,7,5.3|
1,0,4.9|
1,1,0.33|
1,2,8.2|
1,3,0.71|
1,4,8.5|
1,5,9.4|
1,6,1|
1,7,0.46|
2,0,4.4|
2,1,4.2|
2,2,2.7|
2,3,2|
2,4,1.6|
2,5,7.9|
2,6,4|
2,7,9.9|
3,0,0.9|
3,1,6.9|
3,2,8.7|
3,3,5|
3,4,5.8|
3,5,2.2|
3,6,8.9|
3,7,2.5|
4,0,2.1|
4,1,2.1|
4,2,7|
4,3,4|
4,4,6.2|
4,5,5.2|
4,6,6.7|
4,7,8.1|
5,0,5.4|
5,1,3.8|
5,2,3|
5,3,9.6|
5,4,2.5|
5,5,4.8|
5,6,3.2|
5,7,5.2|
6,0,9.5|
6,1,4.8|
6,2,0.11|
6,3,6.8|
6,4,8.5|
6,5,3.8|
6,6,6.6|
6,7,2.4|
7,0,5|
7,1,9.5|
7,2,4.1|
7,3,6.1|
7,4,1.4|
7,5,6.5|
7,6,5.5|
7,7,4.1|
];
constraint_x18_x14=[
0,0,7.4|
0,1,7.5|
0,2,5.7|
0,3,2.3|
0,4,9.5|
0,5,9.9|
0,6,9.3|
0,7,4.2|
1,0,6.3|
1,1,2.7|
1,2,2.5|
1,3,6.9|
1,4,10|
1,5,0.092|
1,6,0.88|
1,7,9.6|
2,0,6.7|
2,1,4.8|
2,2,4.7|
2,3,2.4|
2,4,3.3|
2,5,5.2|
2,6,4.6|
2,7,1.2|
3,0,0.48|
3,1,3.7|
3,2,6.2|
3,3,9.7|
3,4,0.89|
3,5,1.1|
3,6,7.3|
3,7,3.9|
4,0,3.6|
4,1,4.1|
4,2,10|
4,3,7.1|
4,4,7.6|
4,5,4.2|
4,6,1.3|
4,7,7.2|
5,0,4.8|
5,1,7.4|
5,2,5.4|
5,3,2|
5,4,5.3|
5,5,5.3|
5,6,3.2|
5,7,5.8|
6,0,7.3|
6,1,1.6|
6,2,3.5|
6,3,9.6|
6,4,1.9|
6,5,3.9|
6,6,2.7|
6,7,8.9|
7,0,8.9|
7,1,2.6|
7,2,2.4|
7,3,4.6|
7,4,1.9|
7,5,7.9|
7,6,6.6|
7,7,0.58|
];
constraint_x1_y1=[
0,0,8.2|
0,1,8.8|
0,2,0.91|
0,3,9.4|
0,4,6.8|
0,5,7.2|
0,6,6|
0,7,6.3|
1,0,5.5|
1,1,3.2|
1,2,0.14|
1,3,5.8|
1,4,1.8|
1,5,5.8|
1,6,9.8|
1,7,8.5|
2,0,9.9|
2,1,5.1|
2,2,8.7|
2,3,5.9|
2,4,4.2|
2,5,2.5|
2,6,5.4|
2,7,3.5|
3,0,7.4|
3,1,3.5|
3,2,4.5|
3,3,0.23|
3,4,4.4|
3,5,1.5|
3,6,6.6|
3,7,8|
4,0,3|
4,1,6.1|
4,2,6.1|
4,3,1.1|
4,4,3.4|
4,5,2.4|
4,6,2.6|
4,7,3.2|
5,0,8.8|
5,1,8.9|
5,2,9.7|
5,3,7.6|
5,4,1.5|
5,5,4.5|
5,6,1.2|
5,7,9.6|
6,0,1.1|
6,1,3.9|
6,2,1.8|
6,3,4.1|
6,4,0.67|
6,5,3.5|
6,6,8|
6,7,5.1|
7,0,5.4|
7,1,7.6|
7,2,8.8|
7,3,6.3|
7,4,6.6|
7,5,9.8|
7,6,9.8|
7,7,1.9|
];
constraint_x2_y2=[
0,0,5.5|
0,1,4|
0,2,3.6|
0,3,7.4|
0,4,4.1|
0,5,5.6|
0,6,0.39|
0,7,6.5|
1,0,3.2|
1,1,4.8|
1,2,2.5|
1,3,8.8|
1,4,7.4|
1,5,7.8|
1,6,2.6|
1,7,1.9|
2,0,6.7|
2,1,6.2|
2,2,2.9|
2,3,1.3|
2,4,3.6|
2,5,4.2|
2,6,4.3|
2,7,7.7|
3,0,10|
3,1,1.1|
3,2,0.91|
3,3,0.045|
3,4,5.2|
3,5,4.6|
3,6,7.7|
3,7,4.2|
4,0,4.2|
4,1,6.9|
4,2,1.2|
4,3,4.3|
4,4,5.5|
4,5,9.6|
4,6,4.3|
4,7,2.1|
5,0,4.6|
5,1,3.6|
5,2,7.3|
5,3,7.5|
5,4,0.9|
5,5,5.2|
5,6,9.1|
5,7,6.5|
6,0,1|
6,1,9.9|
6,2,7.4|
6,3,3|
6,4,8.4|
6,5,7.3|
6,6,8|
6,7,7|
7,0,5.5|
7,1,5.2|
7,2,2.6|
7,3,9.9|
7,4,7|
7,5,5.8|
7,6,6.9|
7,7,8.9|
];
constraint_x3_y3=[
0,0,0.99|
0,1,6|
0,2,1.5|
0,3,0.39|
0,4,0.51|
0,5,4.8|
0,6,9.8|
0,7,6|
1,0,7|
1,1,5.5|
1,2,5|
1,3,2.8|
1,4,8.7|
1,5,5.7|
1,6,4.3|
1,7,0.065|
2,0,7|
2,1,0.73|
2,2,0.74|
2,3,9.7|
2,4,1.6|
2,5,9.4|
2,6,9.7|
2,7,7.6|
3,0,7.9|
3,1,8.8|
3,2,4.8|
3,3,7.4|
3,4,3.1|
3,5,0.88|
3,6,9.4|
3,7,6.7|
4,0,0.11|
4,1,7.2|
4,2,3.4|
4,3,2.7|
4,4,9.4|
4,5,4.4|
4,6,8|
4,7,6.3|
5,0,4.8|
5,1,2.5|
5,2,1|
5,3,8.8|
5,4,2.3|
5,5,2|
5,6,0.67|
5,7,0.19|
6,0,4.1|
6,1,6.1|
6,2,1.8|
6,3,2.9|
6,4,3.2|
6,5,2.2|
6,6,1.1|
6,7,8.4|
7,0,10|
7,1,0.4|
7,2,8.3|
7,3,9.9|
7,4,8.9|
7,5,7|
7,6,6.4|
7,7,3.6|
];
constraint_x4_y4=[
0,0,9.9|
0,1,1.9|
0,2,7.1|
0,3,9.1|
0,4,7.5|
0,5,8.9|
0,6,4.9|
0,7,5.4|
1,0,7.9|
1,1,3.2|
1,2,8.1|
1,3,3.5|
1,4,0.71|
1,5,2.4|
1,6,7.8|
1,7,6.2|
2,0,1.9|
2,1,1.1|
2,2,7|
2,3,7|
2,4,7.4|
2,5,2.2|
2,6,1.5|
2,7,9.6|
3,0,2.3|
3,1,0.23|
3,2,3.6|
3,3,3.5|
3,4,5.8|
3,5,1.9|
3,6,6.9|
3,7,1.9|
4,0,2.1|
4,1,2.3|
4,2,0.99|
4,3,5.8|
4,4,5.8|
4,5,3.3|
4,6,0.74|
4,7,0.9|
5,0,7.8|
5,1,6.5|
5,2,5.3|
5,3,1.5|
5,4,7.3|
5,5,7.2|
5,6,7.7|
5,7,9.8|
6,0,6.7|
6,1,8.4|
6,2,4.2|
6,3,6.3|
6,4,9.9|
6,5,1.3|
6,6,0.069|
6,7,0.54|
7,0,6|
7,1,8.6|
7,2,9.2|
7,3,4.5|
7,4,4.5|
7,5,5.6|
7,6,5|
7,7,4.8|
];
constraint_x5_y5=[
0,0,8|
0,1,5|
0,2,0.26|
0,3,8.4|
0,4,0.074|
0,5,0.079|
0,6,4.9|
0,7,6.8|
1,0,9.4|
1,1,7.9|
1,2,9.1|
1,3,7|
1,4,3.6|
1,5,9|
1,6,5.8|
1,7,3.7|
2,0,0.13|
2,1,2.7|
2,2,0.79|
2,3,8.7|
2,4,7.2|
2,5,1.6|
2,6,8.7|
2,7,6.9|
3,0,0.41|
3,1,8.6|
3,2,1.4|
3,3,5.3|
3,4,1|
3,5,5|
3,6,2.2|
3,7,2.9|
4,0,5.3|
4,1,9.8|
4,2,5.6|
4,3,6.5|
4,4,2|
4,5,8.8|
4,6,8|
4,7,6.2|
5,0,3.5|
5,1,4.3|
5,2,6.1|
5,3,8.3|
5,4,4.1|
5,5,1.3|
5,6,7.7|
5,7,5.2|
6,0,1.8|
6,1,8.4|
6,2,7.6|
6,3,4.9|
6,4,8.9|
6,5,6.3|
6,6,0.67|
6,7,0.97|
7,0,9.7|
7,1,4|
7,2,3.1|
7,3,2.3|
7,4,2.8|
7,5,3.2|
7,6,0.16|
7,7,2|
];
constraint_x6_y6=[
0,0,7.7|
0,1,3.3|
0,2,6.9|
0,3,0.78|
0,4,6.3|
0,5,5.3|
0,6,1.6|
0,7,5.8|
1,0,3.6|
1,1,6.8|
1,2,8.1|
1,3,9.3|
1,4,3.8|
1,5,8.5|
1,6,0.21|
1,7,4.8|
2,0,8|
2,1,2.7|
2,2,9.6|
2,3,8.4|
2,4,6.8|
2,5,8.1|
2,6,0.08|
2,7,0.85|
3,0,0.75|
3,1,1.9|
3,2,6.9|
3,3,1.9|
3,4,4.3|
3,5,8.8|
3,6,2.3|
3,7,4.8|
4,0,2.3|
4,1,1.8|
4,2,8.9|
4,3,0.42|
4,4,2.1|
4,5,1.1|
4,6,4.5|
4,7,9.4|
5,0,0.13|
5,1,7.7|
5,2,2.2|
5,3,0.075|
5,4,6|
5,5,8.8|
5,6,10|
5,7,6.4|
6,0,9.7|
6,1,5.6|
6,2,0.054|
6,3,6.1|
6,4,6.8|
6,5,4.4|
6,6,10|
6,7,8.3|
7,0,4|
7,1,0.3|
7,2,8.7|
7,3,4.4|
7,4,6.7|
7,5,3.5|
7,6,4|
7,7,0.52|
];
constraint_x7_y7=[
0,0,9.5|
0,1,2.5|
0,2,3.4|
0,3,8.7|
0,4,7.5|
0,5,0.91|
0,6,7.2|
0,7,5.5|
1,0,1.6|
1,1,4.9|
1,2,3.6|
1,3,7.2|
1,4,2.8|
1,5,4.9|
1,6,6.7|
1,7,3.8|
2,0,8.4|
2,1,5.8|
2,2,5.6|
2,3,9.8|
2,4,8.9|
2,5,9.1|
2,6,0.55|
2,7,9.7|
3,0,6.7|
3,1,9.4|
3,2,9.7|
3,3,0.68|
3,4,3.3|
3,5,2.1|
3,6,8.7|
3,7,9.6|
4,0,3.9|
4,1,5|
4,2,8|
4,3,3.9|
4,4,6.2|
4,5,4.6|
4,6,5.1|
4,7,8.2|
5,0,3.8|
5,1,6.1|
5,2,9|
5,3,1.9|
5,4,1.3|
5,5,1.3|
5,6,3.6|
5,7,5.5|
6,0,4|
6,1,8.2|
6,2,6.1|
6,3,8.4|
6,4,0.71|
6,5,8.6|
6,6,6.4|
6,7,5.3|
7,0,6.4|
7,1,4.1|
7,2,6.1|
7,3,1.1|
7,4,5.5|
7,5,3.4|
7,6,6|
7,7,2.4|
];
constraint_x8_y8=[
0,0,7.4|
0,1,2.8|
0,2,0.037|
0,3,5|
0,4,1.4|
0,5,0.046|
0,6,8.2|
0,7,1.2|
1,0,6.9|
1,1,3.1|
1,2,5.4|
1,3,9|
1,4,7.1|
1,5,4.7|
1,6,7.8|
1,7,5.3|
2,0,6.5|
2,1,6.9|
2,2,3|
2,3,5.2|
2,4,3.4|
2,5,7.8|
2,6,7.5|
2,7,8.1|
3,0,1.2|
3,1,1.3|
3,2,9.5|
3,3,6.3|
3,4,1.4|
3,5,4.2|
3,6,1.1|
3,7,8|
4,0,7.6|
4,1,8.4|
4,2,7|
4,3,1.1|
4,4,0.31|
4,5,6.9|
4,6,2|
4,7,10|
5,0,5.3|
5,1,7.9|
5,2,6.9|
5,3,4.3|
5,4,9.1|
5,5,1.8|
5,6,1.1|
5,7,9.2|
6,0,6.8|
6,1,3.5|
6,2,1.2|
6,3,2.1|
6,4,9.2|
6,5,1.6|
6,6,9.5|
6,7,1|
7,0,2.2|
7,1,8.3|
7,2,6.3|
7,3,3.9|
7,4,9.3|
7,5,0.036|
7,6,0.94|
7,7,5.3|
];
initial_distribution_y1=[0.076,0.22,0.16,0.052,0.021,0.16,0.16,0.15];
initial_distribution_y2=[0.045,0.16,0.092,0.17,0.032,0.15,0.18,0.16];
initial_distribution_y3=[0.062,0.12,0.17,0.11,0.16,0.18,0.13,0.084];
initial_distribution_y4=[0.2,0.0044,0.19,0.22,0.16,0.15,0.076,0.0031];
initial_distribution_y5=[0.15,0.1,0.036,0.08,0.13,0.17,0.15,0.18];
initial_distribution_y6=[0.24,0.062,0.07,0.097,0.24,0.011,0.18,0.1];
initial_distribution_y7=[0.14,0.15,0.16,0.11,0.14,0.066,0.083,0.16];
initial_distribution_y8=[0.14,0.22,0.01,0.25,0.16,0.034,0.14,0.047];
transition_y1=[
0.2,0.029,0.13,0.13,0.092,0.13,0.097,0.18|
0.21,0.12,0.0083,0.18,0.15,0.11,0.061,0.16|
0.27,0.18,0.052,0.13,0.033,0.19,0.038,0.12|
0.24,0.14,0.14,0.12,0.14,0.15,0.058,0.014|
0.21,0.11,0.2,0.04,0.16,0.076,0.1,0.1|
0.058,0.23,0.17,0.035,0.14,0.11,0.13,0.12|
0.11,0.16,0.18,0.053,0.13,0.1,0.17,0.089|
0.063,0.075,0.23,0.097,0.18,0.16,0.056,0.14|
];
transition_y2=[
0.17,0.044,0.13,0.13,0.048,0.15,0.17,0.15|
0.15,0.11,0.11,0.026,0.22,0.15,0.19,0.052|
0.2,0.2,0.031,0.019,0.25,0.055,0.23,0.01|
0.2,0.081,0.089,0.16,0.19,0.15,0.092,0.04|
0.15,0.094,0.15,0.016,0.1,0.025,0.24,0.23|
0.19,0.16,0.13,0.16,0.025,0.13,0.069,0.13|
0.078,0.024,0.12,0.093,0.22,0.25,0.0068,0.21|
0.098,0.27,0.063,0.18,0.06,0.15,0.08,0.095|
];
transition_y3=[
0.11,0.13,0.2,0.11,0.16,0.2,0.072,0.023|
0.19,0.19,0.02,0.12,0.025,0.22,0.2,0.036|
0.14,0.072,0.084,0.17,0.19,0.13,0.16,0.044|
0.16,0.24,0.052,0.076,0.049,0.12,0.22,0.085|
0.21,0.1,0.071,0.056,0.087,0.14,0.2,0.13|
0.077,0.072,0.2,0.12,0.018,0.21,0.1,0.2|
0.0085,0.11,0.16,0.11,0.089,0.2,0.23,0.079|
0.27,0.15,0.12,0.11,0.022,0.05,0.016,0.26|
];
transition_y4=[
0.15,0.2,0.017,0.16,0.15,0.15,0.047,0.12|
0.11,0.083,0.18,0.16,0.13,0.087,0.081,0.16|
0.081,0.061,0.18,0.0079,0.21,0.12,0.12,0.21|
0.15,0.028,0.07,0.14,0.17,0.19,0.21,0.045|
0.12,0.1,0.17,0.026,0.16,0.26,0.073,0.094|
0.07,0.024,0.23,0.18,0.09,0.092,0.097,0.21|
0.15,0.13,0.17,0.088,0.11,0.12,0.11,0.11|
0.11,0.11,0.062,0.029,0.19,0.11,0.19,0.19|
];
transition_y5=[
0.085,0.023,0.22,0.14,0.21,0.18,0.0059,0.14|
0.23,0.11,0.062,0.14,0.091,0.23,0.025,0.11|
0.13,0.13,0.19,0.21,0.11,0.0063,0.12,0.099|
0.21,0.11,0.056,0.16,0.077,0.0033,0.18,0.2|
0.099,0.15,0.21,0.17,0.071,0.16,0.12,0.025|
0.17,0.15,0.14,0.017,0.053,0.15,0.14,0.18|
0.11,0.16,0.12,0.16,0.18,0.099,0.13,0.04|
0.12,0.065,0.041,0.17,0.14,0.17,0.16,0.13|
];
transition_y6=[
0.18,0.065,0.059,0.27,0.051,0.052,0.09,0.23|
0.039,0.12,0.055,0.17,0.24,0.073,0.067,0.24|
0.21,0.16,0.26,0.032,0.15,0.0075,0.16,0.023|
0.22,0.043,0.15,0.014,0.11,0.21,0.088,0.16|
0.29,0.17,0.1,0.0078,0.12,0.27,0.024,0.014|
0.056,0.084,0.012,0.17,0.21,0.12,0.14,0.22|
0.004,0.057,0.12,0.26,0.11,0.19,0.016,0.25|
0.041,0.22,0.095,0.018,0.086,0.21,0.14,0.19|
];
transition_y7=[
0.035,0.065,0.052,0.053,0.13,0.24,0.22,0.2|
0.14,0.21,0.098,0.0059,0.094,0.23,0.081,0.13|
0.13,0.16,0.11,0.067,0.15,0.089,0.18,0.11|
0.12,0.16,0.085,0.055,0.11,0.21,0.15,0.1|
0.095,0.16,0.066,0.16,0.05,0.13,0.27,0.074|
0.2,0.015,0.3,0.18,0.15,0.11,0.014,0.031|
0.12,0.16,0.29,0.13,0.022,0.21,0.051,0.0099|
0.21,0.054,0.085,0.2,0.17,0.079,0.18,0.027|
];
transition_y8=[
0.072,0.17,0.025,0.079,0.25,0.16,0.23,0.021|
0.16,0.054,0.13,0.16,0.057,0.14,0.15,0.15|
0.18,0.13,0.062,0.23,0.054,0.12,0.082,0.14|
0.22,0.17,0.013,0.022,0.19,0.08,0.091,0.21|
0.048,0.048,0.17,0.14,0.13,0.17,0.19,0.11|
0.15,0.11,0.17,0.13,0.056,0.16,0.11,0.11|
0.17,0.09,0.098,0.22,0.037,0.15,0.013,0.22|
0.05,0.19,0.2,0.2,0.013,0.19,0.081,0.068|
];
